c A SAT instance generated from a 3-CNF formula that had 24 clauses and 5 variables
p cnf 5 24
5 1 4 0
3 5 -2 0
2 -3 -5 0
5 1 2 0
3 -2 5 0
3 -1 2 0
3 -1 2 0
3 -4 -2 0
-1 4 -2 0
-1 -5 2 0
2 3 -5 0
4 -5 -3 0
5 2 -4 0
2 -5 3 0
3 5 -1 0
-5 3 1 0
-4 -5 3 0
2 -1 -5 0
2 1 -4 0
4 -2 5 0
-2 -3 5 0
3 -2 -4 0
4 2 3 0
3 -5 4 0
